700375
59,188,15,162,62,6,35,228,111,154,132,161,0,71,31,117,48,70,139,134,82,156,73,38,206,66,146,126,42,30,177,198,97,41,159,112,72,208,217,205,135,172,130,147,181,60,79,131,51,220,58,212,44,211,103,229,92,167,171,203,1,114,148,76,221,40,127,105,140,23,65,215,99,52,91,17,55,53,174,104,201,98,189,218,120,179,157,81,102,186,11,145,87,227,108,185,170,149,89,169,141,3,20,216,152,128,32,223,37,202,5,67,8,100,183,115,160,204,33,74,214,77,54,129,80,39,26,168,101,61,86,34,93,107,49,150,27,36,191,178,195,106,88,165,95,90,143,25,21,19,182,209,116,144,210,155,4,43,63,29,136,14,7,119,164,96,193,12,219,175,222,16,46,224,47,110,133,18,226,124,45,213,196,142,10,57,138,75,56,94,78,166,122,24,84,187,123,180,194,192,83,28,118,85,69,125,113,197,199,173,163,153,64,13,109,200,9,190,151,121,50,176,225,68,22,158,207,184,2,137
